牛客/2019暑期多校训练营/数据/9_D_Knapsack Cryptosystem/9.in
36 1400480110558896
6585566876825 19756700630475 46098968137775 131711337536500 115856005905997 77559775768166 176093423289926 162422578275046 154837588875761 173780508554479 49743480898099 76232282337113 76511348982475 41950160664418 159067279646983 35627264924994 83485643693965 82885347355726 43046042158784 65785825461377 6468341531450 39246140077083 35741098325304 6794148145907 39413098057972 78770107111471 19862204264811 84930116518511 84867601856598 164144040671115 40212681958695 137694246021684 178511906144376 154701172494515 141013315127071 90247251775564
